c colouring generated by benchmark framework
p edge 1356 110455
v 1 41
v 2 0
v 3 20
v 4 6
v 5 30
v 6 6
v 7 33
v 8 8
v 9 3
v 10 28
v 11 29
v 12 21
v 13 4
v 14 39
v 15 10
v 16 25
v 17 16
v 18 14
v 19 11
v 20 26
v 21 24
v 22 17
v 23 6
v 24 3
v 25 23
v 26 21
v 27 44
v 28 15
v 29 31
v 30 42
v 31 10
v 32 17
v 33 18
v 34 35
v 35 16
v 36 1
v 37 6
v 38 35
v 39 21
v 40 18
v 41 34
v 42 41
v 43 37
v 44 13
v 45 25
v 46 24
v 47 33
v 48 33
v 49 37
v 50 23
v 51 12
v 52 43
v 53 12
v 54 12
v 55 15
v 56 9
v 57 26
v 58 7
v 59 0
v 60 19
v 61 30
v 62 15
v 63 23
v 64 15
v 65 25
v 66 12
v 67 15
v 68 18
v 69 33
v 70 26
v 71 39
v 72 0
v 73 10
v 74 21
v 75 15
v 76 42
v 77 14
v 78 10
v 79 15
v 80 19
v 81 30
v 82 10
v 83 9
v 84 24
v 85 27
v 86 14
v 87 7
v 88 10
v 89 5
v 90 37
v 91 39
v 92 15
v 93 14
v 94 4
v 95 6
v 96 14
v 97 12
v 98 40
v 99 2
v 100 2
v 101 40
v 102 28
v 103 41
v 104 35
v 105 0
v 106 18
v 107 41
v 108 39
v 109 38
v 110 22
v 111 20
v 112 20
v 113 27
v 114 42
v 115 26
v 116 23
v 117 38
v 118 7
v 119 2
v 120 35
v 121 37
v 122 29
v 123 29
v 124 9
v 125 7
v 126 40
v 127 34
v 128 9
v 129 2
v 130 32
v 131 3
v 132 23
v 133 11
v 134 11
v 135 12
v 136 42
v 137 37
v 138 17
v 139 7
v 140 7
v 141 38
v 142 33
v 143 28
v 144 7
v 145 5
v 146 7
v 147 26
v 148 25
v 149 27
v 150 18
v 151 10
v 152 16
v 153 9
v 154 4
v 155 10
v 156 20
v 157 7
v 158 20
v 159 6
v 160 14
v 161 36
v 162 17
v 163 42
v 164 25
v 165 26
v 166 27
v 167 25
v 168 5
v 169 11
v 170 33
v 171 2
v 172 16
v 173 1
v 174 6
v 175 28
v 176 24
v 177 9
v 178 12
v 179 19
v 180 9
v 181 21
v 182 21
v 183 44
v 184 30
v 185 32
v 186 3
v 187 19
v 188 1
v 189 36
v 190 30
v 191 22
v 192 33
v 193 25
v 194 3
v 195 19
v 196 7
v 197 35
v 198 8
v 199 8
v 200 26
v 201 40
v 202 37
v 203 22
v 204 17
v 205 27
v 206 28
v 207 13
v 208 3
v 209 3
v 210 29
v 211 4
v 212 13
v 213 27
v 214 6
v 215 1
v 216 33
v 217 20
v 218 40
v 219 0
v 220 7
v 221 15
v 222 37
v 223 19
v 224 0
v 225 6
v 226 27
v 227 10
v 228 9
v 229 29
v 230 14
v 231 18
v 232 20
v 233 13
v 234 17
v 235 15
v 236 26
v 237 14
v 238 27
v 239 12
v 240 22
v 241 38
v 242 22
v 243 34
v 244 0
v 245 21
v 246 37
v 247 3
v 248 4
v 249 25
v 250 25
v 251 7
v 252 17
v 253 20
v 254 33
v 255 42
v 256 23
v 257 9
v 258 32
v 259 29
v 260 35
v 261 35
v 262 18
v 263 44
v 264 14
v 265 34
v 266 17
v 267 25
v 268 2
v 269 4
v 270 8
v 271 19
v 272 28
v 273 18
v 274 8
v 275 20
v 276 41
v 277 32
v 278 35
v 279 38
v 280 17
v 281 16
v 282 0
v 283 27
v 284 13
v 285 10
v 286 6
v 287 26
v 288 32
v 289 43
v 290 41
v 291 31
v 292 34
v 293 21
v 294 33
v 295 4
v 296 5
v 297 16
v 298 4
v 299 10
v 300 34
v 301 35
v 302 21
v 303 2
v 304 14
v 305 3
v 306 30
v 307 2
v 308 17
v 309 26
v 310 32
v 311 4
v 312 11
v 313 1
v 314 3
v 315 41
v 316 13
v 317 41
v 318 4
v 319 21
v 320 40
v 321 36
v 322 8
v 323 1
v 324 35
v 325 25
v 326 12
v 327 24
v 328 15
v 329 4
v 330 31
v 331 5
v 332 0
v 333 10
v 334 14
v 335 7
v 336 17
v 337 10
v 338 5
v 339 23
v 340 22
v 341 40
v 342 31
v 343 42
v 344 0
v 345 7
v 346 18
v 347 5
v 348 4
v 349 30
v 350 30
v 351 7
v 352 5
v 353 6
v 354 5
v 355 33
v 356 4
v 357 1
v 358 17
v 359 21
v 360 16
v 361 21
v 362 17
v 363 17
v 364 8
v 365 3
v 366 0
v 367 25
v 368 16
v 369 16
v 370 37
v 371 43
v 372 16
v 373 23
v 374 22
v 375 0
v 376 34
v 377 42
v 378 15
v 379 21
v 380 4
v 381 14
v 382 39
v 383 30
v 384 41
v 385 42
v 386 19
v 387 31
v 388 19
v 389 18
v 390 12
v 391 38
v 392 20
v 393 39
v 394 27
v 395 29
v 396 10
v 397 28
v 398 22
v 399 36
v 400 32
v 401 26
v 402 21
v 403 24
v 404 27
v 405 37
v 406 26
v 407 13
v 408 13
v 409 43
v 410 5
v 411 16
v 412 13
v 413 9
v 414 8
v 415 41
v 416 28
v 417 24
v 418 13
v 419 20
v 420 19
v 421 44
v 422 37
v 423 16
v 424 38
v 425 31
v 426 36
v 427 26
v 428 20
v 429 29
v 430 1
v 431 28
v 432 9
v 433 4
v 434 31
v 435 22
v 436 10
v 437 32
v 438 0
v 439 16
v 440 18
v 441 36
v 442 31
v 443 19
v 444 4
v 445 27
v 446 20
v 447 10
v 448 17
v 449 29
v 450 28
v 451 12
v 452 11
v 453 12
v 454 6
v 455 30
v 456 23
v 457 18
v 458 14
v 459 23
v 460 28
v 461 35
v 462 9
v 463 1
v 464 1
v 465 35
v 466 9
v 467 33
v 468 5
v 469 19
v 470 21
v 471 1
v 472 38
v 473 7
v 474 20
v 475 11
v 476 5
v 477 19
v 478 26
v 479 9
v 480 4
v 481 30
v 482 2
v 483 3
v 484 0
v 485 7
v 486 25
v 487 34
v 488 12
v 489 24
v 490 31
v 491 5
v 492 17
v 493 25
v 494 27
v 495 21
v 496 8
v 497 11
v 498 8
v 499 2
v 500 32
v 501 12
v 502 39
v 503 42
v 504 22
v 505 8
v 506 35
v 507 19
v 508 17
v 509 10
v 510 20
v 511 33
v 512 20
v 513 27
v 514 8
v 515 34
v 516 1
v 517 8
v 518 3
v 519 4
v 520 2
v 521 14
v 522 1
v 523 19
v 524 39
v 525 36
v 526 36
v 527 15
v 528 31
v 529 5
v 530 3
v 531 4
v 532 26
v 533 18
v 534 35
v 535 35
v 536 24
v 537 26
v 538 40
v 539 33
v 540 18
v 541 13
v 542 42
v 543 23
v 544 12
v 545 25
v 546 12
v 547 26
v 548 6
v 549 25
v 550 37
v 551 1
v 552 2
v 553 40
v 554 9
v 555 4
v 556 16
v 557 34
v 558 40
v 559 19
v 560 34
v 561 35
v 562 19
v 563 5
v 564 24
v 565 19
v 566 29
v 567 23
v 568 39
v 569 7
v 570 10
v 571 22
v 572 13
v 573 5
v 574 26
v 575 30
v 576 11
v 577 4
v 578 7
v 579 9
v 580 20
v 581 22
v 582 0
v 583 10
v 584 5
v 585 8
v 586 17
v 587 18
v 588 29
v 589 11
v 590 14
v 591 28
v 592 15
v 593 0
v 594 23
v 595 9
v 596 18
v 597 9
v 598 2
v 599 4
v 600 34
v 601 33
v 602 27
v 603 23
v 604 18
v 605 3
v 606 3
v 607 31
v 608 29
v 609 29
v 610 18
v 611 22
v 612 6
v 613 23
v 614 39
v 615 11
v 616 36
v 617 43
v 618 14
v 619 18
v 620 33
v 621 26
v 622 1
v 623 11
v 624 31
v 625 21
v 626 39
v 627 10
v 628 33
v 629 2
v 630 16
v 631 14
v 632 4
v 633 13
v 634 12
v 635 30
v 636 27
v 637 43
v 638 14
v 639 0
v 640 27
v 641 2
v 642 24
v 643 12
v 644 13
v 645 5
v 646 23
v 647 13
v 648 43
v 649 6
v 650 18
v 651 17
v 652 10
v 653 38
v 654 37
v 655 25
v 656 44
v 657 32
v 658 15
v 659 39
v 660 34
v 661 12
v 662 37
v 663 38
v 664 30
v 665 8
v 666 32
v 667 2
v 668 26
v 669 0
v 670 39
v 671 7
v 672 4
v 673 14
v 674 8
v 675 2
v 676 26
v 677 31
v 678 20
v 679 30
v 680 14
v 681 2
v 682 12
v 683 36
v 684 33
v 685 17
v 686 0
v 687 25
v 688 19
v 689 30
v 690 30
v 691 2
v 692 11
v 693 43
v 694 33
v 695 4
v 696 7
v 697 6
v 698 24
v 699 21
v 700 34
v 701 19
v 702 11
v 703 26
v 704 7
v 705 5
v 706 21
v 707 21
v 708 8
v 709 4
v 710 37
v 711 37
v 712 9
v 713 15
v 714 2
v 715 14
v 716 28
v 717 31
v 718 25
v 719 29
v 720 8
v 721 28
v 722 15
v 723 4
v 724 44
v 725 23
v 726 35
v 727 13
v 728 19
v 729 28
v 730 23
v 731 26
v 732 2
v 733 12
v 734 9
v 735 9
v 736 6
v 737 9
v 738 28
v 739 17
v 740 44
v 741 36
v 742 34
v 743 1
v 744 19
v 745 42
v 746 0
v 747 7
v 748 32
v 749 8
v 750 1
v 751 31
v 752 40
v 753 1
v 754 27
v 755 14
v 756 27
v 757 26
v 758 28
v 759 10
v 760 12
v 761 32
v 762 2
v 763 16
v 764 30
v 765 43
v 766 7
v 767 24
v 768 8
v 769 3
v 770 11
v 771 38
v 772 31
v 773 0
v 774 43
v 775 41
v 776 17
v 777 25
v 778 12
v 779 12
v 780 27
v 781 2
v 782 17
v 783 16
v 784 22
v 785 19
v 786 6
v 787 35
v 788 17
v 789 0
v 790 36
v 791 40
v 792 17
v 793 34
v 794 29
v 795 1
v 796 22
v 797 8
v 798 1
v 799 2
v 800 20
v 801 22
v 802 6
v 803 3
v 804 35
v 805 16
v 806 2
v 807 9
v 808 32
v 809 25
v 810 25
v 811 21
v 812 1
v 813 37
v 814 28
v 815 10
v 816 16
v 817 29
v 818 26
v 819 6
v 820 15
v 821 0
v 822 21
v 823 9
v 824 18
v 825 32
v 826 16
v 827 19
v 828 14
v 829 5
v 830 37
v 831 24
v 832 7
v 833 33
v 834 22
v 835 22
v 836 23
v 837 16
v 838 0
v 839 41
v 840 1
v 841 36
v 842 3
v 843 23
v 844 43
v 845 3
v 846 18
v 847 34
v 848 21
v 849 14
v 850 1
v 851 39
v 852 26
v 853 25
v 854 15
v 855 34
v 856 21
v 857 24
v 858 5
v 859 14
v 860 18
v 861 22
v 862 16
v 863 17
v 864 31
v 865 6
v 866 7
v 867 15
v 868 38
v 869 31
v 870 6
v 871 14
v 872 44
v 873 21
v 874 15
v 875 14
v 876 27
v 877 26
v 878 43
v 879 40
v 880 7
v 881 40
v 882 7
v 883 28
v 884 4
v 885 25
v 886 24
v 887 13
v 888 1
v 889 23
v 890 20
v 891 19
v 892 10
v 893 4
v 894 35
v 895 26
v 896 39
v 897 16
v 898 29
v 899 27
v 900 1
v 901 34
v 902 14
v 903 9
v 904 24
v 905 31
v 906 3
v 907 18
v 908 2
v 909 36
v 910 20
v 911 13
v 912 1
v 913 15
v 914 21
v 915 28
v 916 26
v 917 23
v 918 3
v 919 32
v 920 25
v 921 4
v 922 28
v 923 41
v 924 9
v 925 12
v 926 7
v 927 7
v 928 34
v 929 25
v 930 36
v 931 12
v 932 6
v 933 30
v 934 14
v 935 39
v 936 36
v 937 15
v 938 11
v 939 9
v 940 19
v 941 29
v 942 22
v 943 36
v 944 0
v 945 24
v 946 23
v 947 3
v 948 34
v 949 8
v 950 15
v 951 14
v 952 8
v 953 38
v 954 9
v 955 23
v 956 35
v 957 30
v 958 43
v 959 6
v 960 16
v 961 34
v 962 29
v 963 28
v 964 14
v 965 35
v 966 6
v 967 34
v 968 10
v 969 14
v 970 36
v 971 30
v 972 3
v 973 31
v 974 0
v 975 17
v 976 19
v 977 39
v 978 24
v 979 30
v 980 37
v 981 10
v 982 14
v 983 5
v 984 36
v 985 22
v 986 33
v 987 5
v 988 11
v 989 24
v 990 28
v 991 32
v 992 8
v 993 19
v 994 11
v 995 36
v 996 29
v 997 39
v 998 27
v 999 31
v 1000 11
v 1001 32
v 1002 31
v 1003 11
v 1004 41
v 1005 18
v 1006 10
v 1007 15
v 1008 28
v 1009 17
v 1010 5
v 1011 9
v 1012 4
v 1013 20
v 1014 15
v 1015 8
v 1016 14
v 1017 22
v 1018 11
v 1019 21
v 1020 9
v 1021 37
v 1022 2
v 1023 8
v 1024 6
v 1025 37
v 1026 6
v 1027 38
v 1028 8
v 1029 13
v 1030 28
v 1031 10
v 1032 25
v 1033 29
v 1034 24
v 1035 16
v 1036 10
v 1037 27
v 1038 13
v 1039 13
v 1040 13
v 1041 22
v 1042 2
v 1043 28
v 1044 2
v 1045 42
v 1046 27
v 1047 37
v 1048 20
v 1049 23
v 1050 12
v 1051 21
v 1052 4
v 1053 3
v 1054 15
v 1055 38
v 1056 43
v 1057 2
v 1058 10
v 1059 15
v 1060 7
v 1061 16
v 1062 2
v 1063 22
v 1064 23
v 1065 2
v 1066 11
v 1067 5
v 1068 3
v 1069 41
v 1070 3
v 1071 26
v 1072 38
v 1073 11
v 1074 26
v 1075 31
v 1076 39
v 1077 8
v 1078 17
v 1079 38
v 1080 2
v 1081 18
v 1082 41
v 1083 11
v 1084 15
v 1085 23
v 1086 1
v 1087 11
v 1088 19
v 1089 0
v 1090 30
v 1091 20
v 1092 13
v 1093 11
v 1094 26
v 1095 33
v 1096 18
v 1097 39
v 1098 13
v 1099 26
v 1100 30
v 1101 23
v 1102 36
v 1103 11
v 1104 5
v 1105 3
v 1106 32
v 1107 5
v 1108 26
v 1109 22
v 1110 32
v 1111 1
v 1112 10
v 1113 39
v 1114 30
v 1115 10
v 1116 5
v 1117 11
v 1118 6
v 1119 21
v 1120 1
v 1121 27
v 1122 20
v 1123 6
v 1124 17
v 1125 28
v 1126 33
v 1127 4
v 1128 20
v 1129 31
v 1130 12
v 1131 29
v 1132 8
v 1133 39
v 1134 32
v 1135 39
v 1136 36
v 1137 10
v 1138 19
v 1139 38
v 1140 29
v 1141 21
v 1142 27
v 1143 38
v 1144 10
v 1145 1
v 1146 16
v 1147 28
v 1148 44
v 1149 5
v 1150 9
v 1151 16
v 1152 12
v 1153 17
v 1154 39
v 1155 40
v 1156 2
v 1157 26
v 1158 8
v 1159 17
v 1160 15
v 1161 2
v 1162 12
v 1163 17
v 1164 13
v 1165 7
v 1166 36
v 1167 38
v 1168 11
v 1169 22
v 1170 2
v 1171 13
v 1172 6
v 1173 3
v 1174 30
v 1175 29
v 1176 12
v 1177 24
v 1178 20
v 1179 24
v 1180 10
v 1181 28
v 1182 33
v 1183 23
v 1184 11
v 1185 30
v 1186 31
v 1187 1
v 1188 11
v 1189 25
v 1190 10
v 1191 5
v 1192 19
v 1193 24
v 1194 41
v 1195 27
v 1196 31
v 1197 10
v 1198 20
v 1199 0
v 1200 7
v 1201 8
v 1202 1
v 1203 6
v 1204 41
v 1205 37
v 1206 32
v 1207 12
v 1208 23
v 1209 0
v 1210 44
v 1211 0
v 1212 8
v 1213 38
v 1214 3
v 1215 8
v 1216 12
v 1217 13
v 1218 22
v 1219 24
v 1220 19
v 1221 13
v 1222 22
v 1223 13
v 1224 7
v 1225 14
v 1226 6
v 1227 19
v 1228 43
v 1229 15
v 1230 20
v 1231 37
v 1232 30
v 1233 6
v 1234 30
v 1235 18
v 1236 40
v 1237 22
v 1238 43
v 1239 16
v 1240 16
v 1241 5
v 1242 34
v 1243 19
v 1244 11
v 1245 1
v 1246 11
v 1247 25
v 1248 20
v 1249 40
v 1250 22
v 1251 2
v 1252 9
v 1253 28
v 1254 37
v 1255 27
v 1256 2
v 1257 0
v 1258 18
v 1259 27
v 1260 4
v 1261 21
v 1262 13
v 1263 23
v 1264 40
v 1265 44
v 1266 21
v 1267 27
v 1268 24
v 1269 18
v 1270 16
v 1271 18
v 1272 33
v 1273 16
v 1274 35
v 1275 5
v 1276 16
v 1277 18
v 1278 18
v 1279 0
v 1280 27
v 1281 29
v 1282 12
v 1283 29
v 1284 1
v 1285 5
v 1286 39
v 1287 5
v 1288 11
v 1289 22
v 1290 7
v 1291 32
v 1292 8
v 1293 32
v 1294 13
v 1295 42
v 1296 31
v 1297 3
v 1298 30
v 1299 2
v 1300 17
v 1301 22
v 1302 1
v 1303 21
v 1304 9
v 1305 22
v 1306 34
v 1307 31
v 1308 4
v 1309 23
v 1310 24
v 1311 22
v 1312 0
v 1313 13
v 1314 41
v 1315 41
v 1316 9
v 1317 7
v 1318 16
v 1319 19
v 1320 39
v 1321 30
v 1322 0
v 1323 30
v 1324 29
v 1325 42
v 1326 29
v 1327 14
v 1328 9
v 1329 13
v 1330 2
v 1331 42
v 1332 39
v 1333 8
v 1334 0
v 1335 0
v 1336 8
v 1337 3
v 1338 28
v 1339 29
v 1340 19
v 1341 34
v 1342 23
v 1343 26
v 1344 7
v 1345 21
v 1346 14
v 1347 18
v 1348 10
v 1349 27
v 1350 10
v 1351 32
v 1352 15
v 1353 36
v 1354 6
v 1355 15
v 1356 20
